<instance format="XCSP3" type="COP">
  <variables>
    <array id="x" size="[128]"> 0..127 </array>
  </variables>
  <constraints>
    <group>
      <intension> ne(%0,%1) </intension>
      <args> x[0] x[30] </args>
      <args> x[0] x[43] </args>
      <args> x[0] x[54] </args>
      <args> x[0] x[56] </args>
      <args> x[0] x[66] </args>
      <args> x[0] x[71] </args>
      <args> x[0] x[78] </args>
      <args> x[0] x[79] </args>
      <args> x[0] x[89] </args>
      <args> x[0] x[97] </args>
      <args> x[0] x[101] </args>
      <args> x[0] x[102] </args>
      <args> x[0] x[107] </args>
      <args> x[0] x[108] </args>
      <args> x[0] x[109] </args>
      <args> x[0] x[119] </args>
      <args> x[1] x[9] </args>
      <args> x[1] x[19] </args>
      <args> x[1] x[23] </args>
      <args> x[1] x[24] </args>
      <args> x[1] x[27] </args>
      <args> x[1] x[29] </args>
      <args> x[1] x[37] </args>
      <args> x[1] x[40] </args>
      <args> x[1] x[44] </args>
      <args> x[1] x[51] </args>
      <args> x[1] x[52] </args>
      <args> x[1] x[57] </args>
      <args> x[1] x[60] </args>
      <args> x[1] x[65] </args>
      <args> x[1] x[67] </args>
      <args> x[1] x[68] </args>
      <args> x[1] x[74] </args>
      <args> x[1] x[81] </args>
      <args> x[1] x[83] </args>
      <args> x[1] x[91] </args>
      <args> x[1] x[92] </args>
      <args> x[1] x[93] </args>
      <args> x[1] x[95] </args>
      <args> x[1] x[106] </args>
      <args> x[1] x[110] </args>
      <args> x[1] x[112] </args>
      <args> x[1] x[114] </args>
      <args> x[1] x[115] </args>
      <args> x[1] x[122] </args>
      <args> x[1] x[125] </args>
      <args> x[1] x[126] </args>
      <args> x[2] x[4] </args>
      <args> x[2] x[8] </args>
      <args> x[2] x[47] </args>
      <args> x[2] x[80] </args>
      <args> x[2] x[86] </args>
      <args> x[3] x[8] </args>
      <args> x[3] x[14] </args>
      <args> x[3] x[17] </args>
      <args> x[3] x[20] </args>
      <args> x[3] x[25] </args>
      <args> x[3] x[28] </args>
      <args> x[3] x[39] </args>
      <args> x[3] x[48] </args>
      <args> x[3] x[53] </args>
      <args> x[3] x[76] </args>
      <args> x[3] x[103] </args>
      <args> x[3] x[123] </args>
      <args> x[4] x[31] </args>
      <args> x[4] x[47] </args>
      <args> x[4] x[86] </args>
      <args> x[5] x[12] </args>
      <args> x[5] x[22] </args>
      <args> x[5] x[55] </args>
      <args> x[5] x[59] </args>
      <args> x[5] x[69] </args>
      <args> x[5] x[70] </args>
      <args> x[5] x[83] </args>
      <args> x[5] x[88] </args>
      <args> x[5] x[94] </args>
      <args> x[5] x[95] </args>
      <args> x[5] x[105] </args>
      <args> x[5] x[110] </args>
      <args> x[5] x[121] </args>
      <args> x[5] x[126] </args>
      <args> x[6] x[7] </args>
      <args> x[6] x[13] </args>
      <args> x[6] x[18] </args>
      <args> x[6] x[27] </args>
      <args> x[6] x[42] </args>
      <args> x[6] x[51] </args>
      <args> x[6] x[61] </args>
      <args> x[6] x[65] </args>
      <args> x[6] x[67] </args>
      <args> x[6] x[72] </args>
      <args> x[6] x[82] </args>
      <args> x[6] x[87] </args>
      <args> x[6] x[90] </args>
      <args> x[6] x[91] </args>
      <args> x[6] x[98] </args>
      <args> x[6] x[100] </args>
      <args> x[6] x[114] </args>
      <args> x[6] x[122] </args>
      <args> x[6] x[125] </args>
      <args> x[6] x[127] </args>
      <args> x[7] x[13] </args>
      <args> x[7] x[18] </args>
      <args> x[7] x[26] </args>
      <args> x[7] x[27] </args>
      <args> x[7] x[38] </args>
      <args> x[7] x[42] </args>
      <args> x[7] x[51] </args>
      <args> x[7] x[61] </args>
      <args> x[7] x[65] </args>
      <args> x[7] x[67] </args>
      <args> x[7] x[72] </args>
      <args> x[7] x[73] </args>
      <args> x[7] x[75] </args>
      <args> x[7] x[77] </args>
      <args> x[7] x[87] </args>
      <args> x[7] x[90] </args>
      <args> x[7] x[91] </args>
      <args> x[7] x[98] </args>
      <args> x[7] x[99] </args>
      <args> x[7] x[100] </args>
      <args> x[7] x[109] </args>
      <args> x[7] x[113] </args>
      <args> x[7] x[114] </args>
      <args> x[7] x[122] </args>
      <args> x[7] x[124] </args>
      <args> x[7] x[125] </args>
      <args> x[7] x[127] </args>
      <args> x[8] x[17] </args>
      <args> x[8] x[20] </args>
      <args> x[8] x[25] </args>
      <args> x[8] x[28] </args>
      <args> x[8] x[39] </args>
      <args> x[8] x[48] </args>
      <args> x[8] x[103] </args>
      <args> x[8] x[123] </args>
      <args> x[9] x[19] </args>
      <args> x[9] x[23] </args>
      <args> x[9] x[24] </args>
      <args> x[9] x[27] </args>
      <args> x[9] x[29] </args>
      <args> x[9] x[35] </args>
      <args> x[9] x[37] </args>
      <args> x[9] x[40] </args>
      <args> x[9] x[44] </args>
      <args> x[9] x[45] </args>
      <args> x[9] x[51] </args>
      <args> x[9] x[52] </args>
      <args> x[9] x[57] </args>
      <args> x[9] x[60] </args>
      <args> x[9] x[65] </args>
      <args> x[9] x[68] </args>
      <args> x[9] x[74] </args>
      <args> x[9] x[81] </args>
      <args> x[9] x[83] </args>
      <args> x[9] x[85] </args>
      <args> x[9] x[91] </args>
      <args> x[9] x[92] </args>
      <args> x[9] x[93] </args>
      <args> x[9] x[95] </args>
      <args> x[9] x[106] </args>
      <args> x[9] x[110] </args>
      <args> x[9] x[112] </args>
      <args> x[9] x[114] </args>
      <args> x[9] x[115] </args>
      <args> x[9] x[117] </args>
      <args> x[9] x[122] </args>
      <args> x[9] x[125] </args>
      <args> x[9] x[126] </args>
      <args> x[10] x[16] </args>
      <args> x[10] x[41] </args>
      <args> x[10] x[49] </args>
      <args> x[10] x[58] </args>
      <args> x[10] x[62] </args>
      <args> x[10] x[80] </args>
      <args> x[10] x[84] </args>
      <args> x[11] x[15] </args>
      <args> x[11] x[30] </args>
      <args> x[11] x[31] </args>
      <args> x[11] x[32] </args>
      <args> x[11] x[36] </args>
      <args> x[11] x[46] </args>
      <args> x[11] x[79] </args>
      <args> x[11] x[101] </args>
      <args> x[12] x[22] </args>
      <args> x[12] x[55] </args>
      <args> x[12] x[59] </args>
      <args> x[12] x[69] </args>
      <args> x[12] x[70] </args>
      <args> x[12] x[74] </args>
      <args> x[12] x[83] </args>
      <args> x[12] x[88] </args>
      <args> x[12] x[92] </args>
      <args> x[12] x[94] </args>
      <args> x[12] x[95] </args>
      <args> x[12] x[105] </args>
      <args> x[12] x[110] </args>
      <args> x[12] x[121] </args>
      <args> x[12] x[126] </args>
      <args> x[13] x[18] </args>
      <args> x[13] x[27] </args>
      <args> x[13] x[42] </args>
      <args> x[13] x[51] </args>
      <args> x[13] x[61] </args>
      <args> x[13] x[72] </args>
      <args> x[13] x[90] </args>
      <args> x[13] x[98] </args>
      <args> x[13] x[99] </args>
      <args> x[13] x[100] </args>
      <args> x[14] x[17] </args>
      <args> x[14] x[20] </args>
      <args> x[14] x[25] </args>
      <args> x[14] x[28] </args>
      <args> x[14] x[39] </args>
      <args> x[14] x[53] </args>
      <args> x[14] x[76] </args>
      <args> x[14] x[123] </args>
      <args> x[15] x[31] </args>
      <args> x[15] x[32] </args>
      <args> x[15] x[34] </args>
      <args> x[15] x[73] </args>
      <args> x[15] x[86] </args>
      <args> x[15] x[101] </args>
      <args> x[15] x[116] </args>
      <args> x[16] x[41] </args>
      <args> x[16] x[49] </args>
      <args> x[16] x[58] </args>
      <args> x[16] x[62] </args>
      <args> x[16] x[80] </args>
      <args> x[16] x[84] </args>
      <args> x[17] x[20] </args>
      <args> x[17] x[25] </args>
      <args> x[17] x[39] </args>
      <args> x[17] x[48] </args>
      <args> x[17] x[76] </args>
      <args> x[17] x[103] </args>
      <args> x[17] x[123] </args>
      <args> x[18] x[38] </args>
      <args> x[18] x[42] </args>
      <args> x[18] x[61] </args>
      <args> x[18] x[64] </args>
      <args> x[18] x[72] </args>
      <args> x[18] x[73] </args>
      <args> x[18] x[77] </args>
      <args> x[18] x[87] </args>
      <args> x[18] x[90] </args>
      <args> x[18] x[96] </args>
      <args> x[18] x[99] </args>
      <args> x[18] x[100] </args>
      <args> x[18] x[104] </args>
      <args> x[18] x[113] </args>
      <args> x[18] x[124] </args>
      <args> x[18] x[127] </args>
      <args> x[19] x[21] </args>
      <args> x[19] x[23] </args>
      <args> x[19] x[24] </args>
      <args> x[19] x[27] </args>
      <args> x[19] x[29] </args>
      <args> x[19] x[35] </args>
      <args> x[19] x[37] </args>
      <args> x[19] x[40] </args>
      <args> x[19] x[44] </args>
      <args> x[19] x[45] </args>
      <args> x[19] x[51] </args>
      <args> x[19] x[52] </args>
      <args> x[19] x[57] </args>
      <args> x[19] x[60] </args>
      <args> x[19] x[65] </args>
      <args> x[19] x[67] </args>
      <args> x[19] x[68] </args>
      <args> x[19] x[74] </args>
      <args> x[19] x[81] </args>
      <args> x[19] x[82] </args>
      <args> x[19] x[85] </args>
      <args> x[19] x[91] </args>
      <args> x[19] x[92] </args>
      <args> x[19] x[93] </args>
      <args> x[19] x[110] </args>
      <args> x[19] x[112] </args>
      <args> x[19] x[114] </args>
      <args> x[19] x[115] </args>
      <args> x[19] x[117] </args>
      <args> x[19] x[122] </args>
      <args> x[19] x[125] </args>
      <args> x[19] x[126] </args>
      <args> x[20] x[25] </args>
      <args> x[20] x[28] </args>
      <args> x[20] x[39] </args>
      <args> x[20] x[48] </args>
      <args> x[20] x[76] </args>
      <args> x[20] x[103] </args>
      <args> x[20] x[123] </args>
      <args> x[21] x[23] </args>
      <args> x[21] x[24] </args>
      <args> x[21] x[29] </args>
      <args> x[21] x[35] </args>
      <args> x[21] x[37] </args>
      <args> x[21] x[45] </args>
      <args> x[21] x[52] </args>
      <args> x[21] x[57] </args>
      <args> x[21] x[60] </args>
      <args> x[21] x[81] </args>
      <args> x[21] x[82] </args>
      <args> x[21] x[85] </args>
      <args> x[21] x[93] </args>
      <args> x[21] x[115] </args>
      <args> x[21] x[117] </args>
      <args> x[22] x[55] </args>
      <args> x[22] x[59] </args>
      <args> x[22] x[63] </args>
      <args> x[22] x[66] </args>
      <args> x[22] x[69] </args>
      <args> x[22] x[70] </args>
      <args> x[22] x[88] </args>
      <args> x[22] x[94] </args>
      <args> x[22] x[95] </args>
      <args> x[22] x[105] </args>
      <args> x[22] x[121] </args>
      <args> x[23] x[24] </args>
      <args> x[23] x[29] </args>
      <args> x[23] x[35] </args>
      <args> x[23] x[37] </args>
      <args> x[23] x[40] </args>
      <args> x[23] x[44] </args>
      <args> x[23] x[45] </args>
      <args> x[23] x[51] </args>
      <args> x[23] x[52] </args>
      <args> x[23] x[57] </args>
      <args> x[23] x[60] </args>
      <args> x[23] x[65] </args>
      <args> x[23] x[68] </args>
      <args> x[23] x[74] </args>
      <args> x[23] x[81] </args>
      <args> x[23] x[82] </args>
      <args> x[23] x[83] </args>
      <args> x[23] x[85] </args>
      <args> x[23] x[92] </args>
      <args> x[23] x[93] </args>
      <args> x[23] x[110] </args>
      <args> x[23] x[112] </args>
      <args> x[23] x[114] </args>
      <args> x[23] x[115] </args>
      <args> x[23] x[117] </args>
      <args> x[23] x[122] </args>
      <args> x[23] x[125] </args>
      <args> x[23] x[126] </args>
      <args> x[24] x[29] </args>
      <args> x[24] x[35] </args>
      <args> x[24] x[37] </args>
      <args> x[24] x[40] </args>
      <args> x[24] x[44] </args>
      <args> x[24] x[45] </args>
      <args> x[24] x[51] </args>
      <args> x[24] x[52] </args>
      <args> x[24] x[57] </args>
      <args> x[24] x[60] </args>
      <args> x[24] x[65] </args>
      <args> x[24] x[68] </args>
      <args> x[24] x[81] </args>
      <args> x[24] x[82] </args>
      <args> x[24] x[85] </args>
      <args> x[24] x[92] </args>
      <args> x[24] x[93] </args>
      <args> x[24] x[112] </args>
      <args> x[24] x[114] </args>
      <args> x[24] x[115] </args>
      <args> x[24] x[117] </args>
      <args> x[24] x[122] </args>
      <args> x[24] x[125] </args>
      <args> x[25] x[28] </args>
      <args> x[25] x[39] </args>
      <args> x[25] x[48] </args>
      <args> x[25] x[53] </args>
      <args> x[25] x[76] </args>
      <args> x[25] x[103] </args>
      <args> x[25] x[123] </args>
      <args> x[26] x[27] </args>
      <args> x[26] x[38] </args>
      <args> x[26] x[42] </args>
      <args> x[26] x[51] </args>
      <args> x[26] x[61] </args>
      <args> x[26] x[63] </args>
      <args> x[26] x[67] </args>
      <args> x[26] x[72] </args>
      <args> x[26] x[75] </args>
      <args> x[26] x[78] </args>
      <args> x[26] x[79] </args>
      <args> x[26] x[87] </args>
      <args> x[26] x[89] </args>
      <args> x[26] x[90] </args>
      <args> x[26] x[91] </args>
      <args> x[26] x[99] </args>
      <args> x[26] x[101] </args>
      <args> x[26] x[107] </args>
      <args> x[26] x[108] </args>
      <args> x[26] x[109] </args>
      <args> x[26] x[113] </args>
      <args> x[26] x[121] </args>
      <args> x[26] x[127] </args>
      <args> x[27] x[29] </args>
      <args> x[27] x[42] </args>
      <args> x[27] x[44] </args>
      <args> x[27] x[51] </args>
      <args> x[27] x[52] </args>
      <args> x[27] x[57] </args>
      <args> x[27] x[61] </args>
      <args> x[27] x[65] </args>
      <args> x[27] x[67] </args>
      <args> x[27] x[68] </args>
      <args> x[27] x[72] </args>
      <args> x[27] x[74] </args>
      <args> x[27] x[75] </args>
      <args> x[27] x[82] </args>
      <args> x[27] x[87] </args>
      <args> x[27] x[90] </args>
      <args> x[27] x[91] </args>
      <args> x[27] x[93] </args>
      <args> x[27] x[98] </args>
      <args> x[27] x[99] </args>
      <args> x[27] x[106] </args>
      <args> x[27] x[112] </args>
      <args> x[27] x[114] </args>
      <args> x[27] x[122] </args>
      <args> x[27] x[125] </args>
      <args> x[27] x[127] </args>
      <args> x[28] x[39] </args>
      <args> x[28] x[53] </args>
      <args> x[28] x[76] </args>
      <args> x[28] x[111] </args>
      <args> x[28] x[123] </args>
      <args> x[29] x[35] </args>
      <args> x[29] x[37] </args>
      <args> x[29] x[40] </args>
      <args> x[29] x[44] </args>
      <args> x[29] x[45] </args>
      <args> x[29] x[51] </args>
      <args> x[29] x[52] </args>
      <args> x[29] x[57] </args>
      <args> x[29] x[60] </args>
      <args> x[29] x[65] </args>
      <args> x[29] x[68] </args>
      <args> x[29] x[74] </args>
      <args> x[29] x[81] </args>
      <args> x[29] x[82] </args>
      <args> x[29] x[83] </args>
      <args> x[29] x[85] </args>
      <args> x[29] x[91] </args>
      <args> x[29] x[92] </args>
      <args> x[29] x[93] </args>
      <args> x[29] x[110] </args>
      <args> x[29] x[112] </args>
      <args> x[29] x[114] </args>
      <args> x[29] x[115] </args>
      <args> x[29] x[117] </args>
      <args> x[29] x[122] </args>
      <args> x[29] x[125] </args>
      <args> x[29] x[126] </args>
      <args> x[30] x[43] </args>
      <args> x[30] x[46] </args>
      <args> x[30] x[54] </args>
      <args> x[30] x[56] </args>
      <args> x[30] x[71] </args>
      <args> x[30] x[79] </args>
      <args> x[30] x[89] </args>
      <args> x[30] x[97] </args>
      <args> x[30] x[101] </args>
      <args> x[30] x[102] </args>
      <args> x[30] x[107] </args>
      <args> x[30] x[108] </args>
      <args> x[30] x[118] </args>
      <args> x[30] x[119] </args>
      <args> x[31] x[32] </args>
      <args> x[31] x[36] </args>
      <args> x[31] x[46] </args>
      <args> x[31] x[47] </args>
      <args> x[31] x[86] </args>
      <args> x[32] x[34] </args>
      <args> x[32] x[36] </args>
      <args> x[32] x[73] </args>
      <args> x[32] x[79] </args>
      <args> x[32] x[86] </args>
      <args> x[32] x[89] </args>
      <args> x[32] x[101] </args>
      <args> x[32] x[116] </args>
      <args> x[33] x[50] </args>
      <args> x[33] x[64] </args>
      <args> x[33] x[120] </args>
      <args> x[34] x[86] </args>
      <args> x[35] x[37] </args>
      <args> x[35] x[40] </args>
      <args> x[35] x[45] </args>
      <args> x[35] x[52] </args>
      <args> x[35] x[57] </args>
      <args> x[35] x[60] </args>
      <args> x[35] x[68] </args>
      <args> x[35] x[81] </args>
      <args> x[35] x[85] </args>
      <args> x[35] x[93] </args>
      <args> x[35] x[112] </args>
      <args> x[35] x[115] </args>
      <args> x[35] x[117] </args>
      <args> x[36] x[46] </args>
      <args> x[37] x[40] </args>
      <args> x[37] x[44] </args>
      <args> x[37] x[45] </args>
      <args> x[37] x[52] </args>
      <args> x[37] x[57] </args>
      <args> x[37] x[60] </args>
      <args> x[37] x[65] </args>
      <args> x[37] x[68] </args>
      <args> x[37] x[74] </args>
      <args> x[37] x[81] </args>
      <args> x[37] x[82] </args>
      <args> x[37] x[85] </args>
      <args> x[37] x[92] </args>
      <args> x[37] x[93] </args>
      <args> x[37] x[110] </args>
      <args> x[37] x[112] </args>
      <args> x[37] x[114] </args>
      <args> x[37] x[115] </args>
      <args> x[37] x[117] </args>
      <args> x[37] x[122] </args>
      <args> x[37] x[125] </args>
      <args> x[37] x[126] </args>
      <args> x[38] x[42] </args>
      <args> x[38] x[61] </args>
      <args> x[38] x[64] </args>
      <args> x[38] x[72] </args>
      <args> x[38] x[73] </args>
      <args> x[38] x[77] </args>
      <args> x[38] x[78] </args>
      <args> x[38] x[89] </args>
      <args> x[38] x[90] </args>
      <args> x[38] x[96] </args>
      <args> x[38] x[99] </args>
      <args> x[38] x[100] </args>
      <args> x[38] x[104] </args>
      <args> x[38] x[109] </args>
      <args> x[38] x[113] </args>
      <args> x[38] x[116] </args>
      <args> x[38] x[124] </args>
      <args> x[38] x[127] </args>
      <args> x[39] x[48] </args>
      <args> x[39] x[53] </args>
      <args> x[39] x[76] </args>
      <args> x[39] x[103] </args>
      <args> x[39] x[123] </args>
      <args> x[40] x[44] </args>
      <args> x[40] x[45] </args>
      <args> x[40] x[52] </args>
      <args> x[40] x[57] </args>
      <args> x[40] x[60] </args>
      <args> x[40] x[65] </args>
      <args> x[40] x[68] </args>
      <args> x[40] x[74] </args>
      <args> x[40] x[81] </args>
      <args> x[40] x[83] </args>
      <args> x[40] x[85] </args>
      <args> x[40] x[92] </args>
      <args> x[40] x[93] </args>
      <args> x[40] x[95] </args>
      <args> x[40] x[110] </args>
      <args> x[40] x[112] </args>
      <args> x[40] x[114] </args>
      <args> x[40] x[115] </args>
      <args> x[40] x[117] </args>
      <args> x[40] x[122] </args>
      <args> x[40] x[125] </args>
      <args> x[40] x[126] </args>
      <args> x[41] x[49] </args>
      <args> x[41] x[58] </args>
      <args> x[41] x[62] </args>
      <args> x[41] x[80] </args>
      <args> x[41] x[84] </args>
      <args> x[42] x[51] </args>
      <args> x[42] x[61] </args>
      <args> x[42] x[65] </args>
      <args> x[42] x[67] </args>
      <args> x[42] x[72] </args>
      <args> x[42] x[73] </args>
      <args> x[42] x[75] </args>
      <args> x[42] x[77] </args>
      <args> x[42] x[78] </args>
      <args> x[42] x[87] </args>
      <args> x[42] x[90] </args>
      <args> x[42] x[91] </args>
      <args> x[42] x[98] </args>
      <args> x[42] x[99] </args>
      <args> x[42] x[100] </args>
      <args> x[42] x[104] </args>
      <args> x[42] x[109] </args>
      <args> x[42] x[113] </args>
      <args> x[42] x[114] </args>
      <args> x[42] x[116] </args>
      <args> x[42] x[124] </args>
      <args> x[42] x[127] </args>
      <args> x[43] x[54] </args>
      <args> x[43] x[56] </args>
      <args> x[43] x[66] </args>
      <args> x[43] x[71] </args>
      <args> x[43] x[79] </args>
      <args> x[43] x[97] </args>
      <args> x[43] x[102] </args>
      <args> x[43] x[108] </args>
      <args> x[43] x[118] </args>
      <args> x[43] x[119] </args>
      <args> x[44] x[45] </args>
      <args> x[44] x[51] </args>
      <args> x[44] x[52] </args>
      <args> x[44] x[57] </args>
      <args> x[44] x[60] </args>
      <args> x[44] x[61] </args>
      <args> x[44] x[65] </args>
      <args> x[44] x[67] </args>
      <args> x[44] x[68] </args>
      <args> x[44] x[74] </args>
      <args> x[44] x[75] </args>
      <args> x[44] x[81] </args>
      <args> x[44] x[82] </args>
      <args> x[44] x[87] </args>
      <args> x[44] x[90] </args>
      <args> x[44] x[91] </args>
      <args> x[44] x[92] </args>
      <args> x[44] x[93] </args>
      <args> x[44] x[98] </args>
      <args> x[44] x[106] </args>
      <args> x[44] x[110] </args>
      <args> x[44] x[112] </args>
      <args> x[44] x[114] </args>
      <args> x[44] x[115] </args>
      <args> x[44] x[122] </args>
      <args> x[44] x[125] </args>
      <args> x[44] x[126] </args>
      <args> x[45] x[51] </args>
      <args> x[45] x[52] </args>
      <args> x[45] x[57] </args>
      <args> x[45] x[60] </args>
      <args> x[45] x[65] </args>
      <args> x[45] x[68] </args>
      <args> x[45] x[81] </args>
      <args> x[45] x[82] </args>
      <args> x[45] x[85] </args>
      <args> x[45] x[93] </args>
      <args> x[45] x[112] </args>
      <args> x[45] x[114] </args>
      <args> x[45] x[115] </args>
      <args> x[45] x[117] </args>
      <args> x[45] x[122] </args>
      <args> x[45] x[125] </args>
      <args> x[46] x[111] </args>
      <args> x[46] x[119] </args>
      <args> x[47] x[86] </args>
      <args> x[48] x[58] </args>
      <args> x[48] x[80] </args>
      <args> x[48] x[103] </args>
      <args> x[48] x[123] </args>
      <args> x[49] x[58] </args>
      <args> x[49] x[62] </args>
      <args> x[49] x[80] </args>
      <args> x[49] x[84] </args>
      <args> x[50] x[64] </args>
      <args> x[50] x[77] </args>
      <args> x[50] x[96] </args>
      <args> x[50] x[104] </args>
      <args> x[50] x[120] </args>
      <args> x[50] x[124] </args>
      <args> x[51] x[52] </args>
      <args> x[51] x[57] </args>
      <args> x[51] x[61] </args>
      <args> x[51] x[65] </args>
      <args> x[51] x[67] </args>
      <args> x[51] x[68] </args>
      <args> x[51] x[74] </args>
      <args> x[51] x[75] </args>
      <args> x[51] x[82] </args>
      <args> x[51] x[87] </args>
      <args> x[51] x[90] </args>
      <args> x[51] x[91] </args>
      <args> x[51] x[93] </args>
      <args> x[51] x[98] </args>
      <args> x[51] x[99] </args>
      <args> x[51] x[106] </args>
      <args> x[51] x[112] </args>
      <args> x[51] x[114] </args>
      <args> x[51] x[115] </args>
      <args> x[51] x[122] </args>
      <args> x[51] x[125] </args>
      <args> x[51] x[127] </args>
      <args> x[52] x[57] </args>
      <args> x[52] x[60] </args>
      <args> x[52] x[65] </args>
      <args> x[52] x[68] </args>
      <args> x[52] x[74] </args>
      <args> x[52] x[81] </args>
      <args> x[52] x[82] </args>
      <args> x[52] x[85] </args>
      <args> x[52] x[92] </args>
      <args> x[52] x[93] </args>
      <args> x[52] x[110] </args>
      <args> x[52] x[112] </args>
      <args> x[52] x[114] </args>
      <args> x[52] x[115] </args>
      <args> x[52] x[117] </args>
      <args> x[52] x[122] </args>
      <args> x[52] x[125] </args>
      <args> x[53] x[76] </args>
      <args> x[53] x[111] </args>
      <args> x[54] x[56] </args>
      <args> x[54] x[63] </args>
      <args> x[54] x[66] </args>
      <args> x[54] x[69] </args>
      <args> x[54] x[71] </args>
      <args> x[54] x[79] </args>
      <args> x[54] x[97] </args>
      <args> x[54] x[102] </args>
      <args> x[54] x[107] </args>
      <args> x[54] x[108] </args>
      <args> x[54] x[109] </args>
      <args> x[54] x[118] </args>
      <args> x[54] x[119] </args>
      <args> x[54] x[121] </args>
      <args> x[55] x[59] </args>
      <args> x[55] x[70] </args>
      <args> x[55] x[88] </args>
      <args> x[55] x[94] </args>
      <args> x[55] x[105] </args>
      <args> x[56] x[63] </args>
      <args> x[56] x[66] </args>
      <args> x[56] x[69] </args>
      <args> x[56] x[71] </args>
      <args> x[56] x[97] </args>
      <args> x[56] x[102] </args>
      <args> x[56] x[107] </args>
      <args> x[56] x[108] </args>
      <args> x[56] x[118] </args>
      <args> x[56] x[119] </args>
      <args> x[56] x[121] </args>
      <args> x[57] x[60] </args>
      <args> x[57] x[65] </args>
      <args> x[57] x[68] </args>
      <args> x[57] x[81] </args>
      <args> x[57] x[82] </args>
      <args> x[57] x[85] </args>
      <args> x[57] x[92] </args>
      <args> x[57] x[93] </args>
      <args> x[57] x[112] </args>
      <args> x[57] x[114] </args>
      <args> x[57] x[115] </args>
      <args> x[57] x[117] </args>
      <args> x[57] x[122] </args>
      <args> x[57] x[125] </args>
      <args> x[58] x[62] </args>
      <args> x[58] x[80] </args>
      <args> x[58] x[84] </args>
      <args> x[58] x[103] </args>
      <args> x[59] x[69] </args>
      <args> x[59] x[70] </args>
      <args> x[59] x[83] </args>
      <args> x[59] x[88] </args>
      <args> x[59] x[94] </args>
      <args> x[59] x[95] </args>
      <args> x[59] x[105] </args>
      <args> x[60] x[68] </args>
      <args> x[60] x[81] </args>
      <args> x[60] x[82] </args>
      <args> x[60] x[85] </args>
      <args> x[60] x[92] </args>
      <args> x[60] x[93] </args>
      <args> x[60] x[112] </args>
      <args> x[60] x[115] </args>
      <args> x[60] x[117] </args>
      <args> x[60] x[125] </args>
      <args> x[61] x[65] </args>
      <args> x[61] x[67] </args>
      <args> x[61] x[68] </args>
      <args> x[61] x[72] </args>
      <args> x[61] x[75] </args>
      <args> x[61] x[82] </args>
      <args> x[61] x[87] </args>
      <args> x[61] x[90] </args>
      <args> x[61] x[91] </args>
      <args> x[61] x[98] </args>
      <args> x[61] x[99] </args>
      <args> x[61] x[100] </args>
      <args> x[61] x[106] </args>
      <args> x[61] x[113] </args>
      <args> x[61] x[114] </args>
      <args> x[61] x[122] </args>
      <args> x[61] x[125] </args>
      <args> x[61] x[127] </args>
      <args> x[62] x[80] </args>
      <args> x[62] x[84] </args>
      <args> x[63] x[66] </args>
      <args> x[63] x[69] </args>
      <args> x[63] x[70] </args>
      <args> x[63] x[75] </args>
      <args> x[63] x[87] </args>
      <args> x[63] x[88] </args>
      <args> x[63] x[102] </args>
      <args> x[63] x[107] </args>
      <args> x[63] x[109] </args>
      <args> x[63] x[121] </args>
      <args> x[63] x[127] </args>
      <args> x[64] x[73] </args>
      <args> x[64] x[77] </args>
      <args> x[64] x[96] </args>
      <args> x[64] x[100] </args>
      <args> x[64] x[104] </args>
      <args> x[64] x[113] </args>
      <args> x[64] x[116] </args>
      <args> x[64] x[120] </args>
      <args> x[64] x[124] </args>
      <args> x[65] x[67] </args>
      <args> x[65] x[68] </args>
      <args> x[65] x[74] </args>
      <args> x[65] x[75] </args>
      <args> x[65] x[81] </args>
      <args> x[65] x[82] </args>
      <args> x[65] x[87] </args>
      <args> x[65] x[90] </args>
      <args> x[65] x[91] </args>
      <args> x[65] x[92] </args>
      <args> x[65] x[93] </args>
      <args> x[65] x[98] </args>
      <args> x[65] x[106] </args>
      <args> x[65] x[112] </args>
      <args> x[65] x[114] </args>
      <args> x[65] x[115] </args>
      <args> x[65] x[122] </args>
      <args> x[65] x[125] </args>
      <args> x[66] x[69] </args>
      <args> x[66] x[97] </args>
      <args> x[66] x[102] </args>
      <args> x[66] x[107] </args>
      <args> x[66] x[121] </args>
      <args> x[67] x[68] </args>
      <args> x[67] x[72] </args>
      <args> x[67] x[74] </args>
      <args> x[67] x[75] </args>
      <args> x[67] x[82] </args>
      <args> x[67] x[87] </args>
      <args> x[67] x[90] </args>
      <args> x[67] x[91] </args>
      <args> x[67] x[93] </args>
      <args> x[67] x[98] </args>
      <args> x[67] x[99] </args>
      <args> x[67] x[106] </args>
      <args> x[67] x[109] </args>
      <args> x[67] x[112] </args>
      <args> x[67] x[114] </args>
      <args> x[67] x[122] </args>
      <args> x[67] x[125] </args>
      <args> x[67] x[126] </args>
      <args> x[67] x[127] </args>
      <args> x[68] x[74] </args>
      <args> x[68] x[81] </args>
      <args> x[68] x[82] </args>
      <args> x[68] x[85] </args>
      <args> x[68] x[90] </args>
      <args> x[68] x[91] </args>
      <args> x[68] x[92] </args>
      <args> x[68] x[93] </args>
      <args> x[68] x[98] </args>
      <args> x[68] x[106] </args>
      <args> x[68] x[112] </args>
      <args> x[68] x[114] </args>
      <args> x[68] x[115] </args>
      <args> x[68] x[117] </args>
      <args> x[68] x[122] </args>
      <args> x[68] x[125] </args>
      <args> x[69] x[70] </args>
      <args> x[69] x[88] </args>
      <args> x[69] x[95] </args>
      <args> x[69] x[121] </args>
      <args> x[70] x[74] </args>
      <args> x[70] x[83] </args>
      <args> x[70] x[88] </args>
      <args> x[70] x[94] </args>
      <args> x[70] x[95] </args>
      <args> x[70] x[105] </args>
      <args> x[70] x[106] </args>
      <args> x[70] x[110] </args>
      <args> x[70] x[121] </args>
      <args> x[70] x[126] </args>
      <args> x[71] x[97] </args>
      <args> x[71] x[102] </args>
      <args> x[71] x[118] </args>
      <args> x[71] x[119] </args>
      <args> x[72] x[73] </args>
      <args> x[72] x[75] </args>
      <args> x[72] x[77] </args>
      <args> x[72] x[87] </args>
      <args> x[72] x[90] </args>
      <args> x[72] x[96] </args>
      <args> x[72] x[99] </args>
      <args> x[72] x[100] </args>
      <args> x[72] x[104] </args>
      <args> x[72] x[113] </args>
      <args> x[72] x[124] </args>
      <args> x[72] x[127] </args>
      <args> x[73] x[77] </args>
      <args> x[73] x[78] </args>
      <args> x[73] x[79] </args>
      <args> x[73] x[89] </args>
      <args> x[73] x[96] </args>
      <args> x[73] x[99] </args>
      <args> x[73] x[100] </args>
      <args> x[73] x[101] </args>
      <args> x[73] x[104] </args>
      <args> x[73] x[107] </args>
      <args> x[73] x[108] </args>
      <args> x[73] x[109] </args>
      <args> x[73] x[113] </args>
      <args> x[73] x[116] </args>
      <args> x[73] x[124] </args>
      <args> x[73] x[127] </args>
      <args> x[74] x[83] </args>
      <args> x[74] x[91] </args>
      <args> x[74] x[92] </args>
      <args> x[74] x[95] </args>
      <args> x[74] x[106] </args>
      <args> x[74] x[110] </args>
      <args> x[74] x[112] </args>
      <args> x[74] x[114] </args>
      <args> x[74] x[115] </args>
      <args> x[74] x[122] </args>
      <args> x[74] x[125] </args>
      <args> x[74] x[126] </args>
      <args> x[75] x[78] </args>
      <args> x[75] x[87] </args>
      <args> x[75] x[89] </args>
      <args> x[75] x[90] </args>
      <args> x[75] x[91] </args>
      <args> x[75] x[98] </args>
      <args> x[75] x[99] </args>
      <args> x[75] x[106] </args>
      <args> x[75] x[107] </args>
      <args> x[75] x[109] </args>
      <args> x[75] x[113] </args>
      <args> x[75] x[114] </args>
      <args> x[75] x[121] </args>
      <args> x[75] x[122] </args>
      <args> x[75] x[125] </args>
      <args> x[75] x[127] </args>
      <args> x[76] x[123] </args>
      <args> x[77] x[78] </args>
      <args> x[77] x[96] </args>
      <args> x[77] x[99] </args>
      <args> x[77] x[100] </args>
      <args> x[77] x[104] </args>
      <args> x[77] x[109] </args>
      <args> x[77] x[113] </args>
      <args> x[77] x[116] </args>
      <args> x[77] x[124] </args>
      <args> x[77] x[127] </args>
      <args> x[78] x[79] </args>
      <args> x[78] x[87] </args>
      <args> x[78] x[89] </args>
      <args> x[78] x[96] </args>
      <args> x[78] x[97] </args>
      <args> x[78] x[99] </args>
      <args> x[78] x[101] </args>
      <args> x[78] x[104] </args>
      <args> x[78] x[107] </args>
      <args> x[78] x[108] </args>
      <args> x[78] x[109] </args>
      <args> x[78] x[113] </args>
      <args> x[78] x[116] </args>
      <args> x[78] x[124] </args>
      <args> x[78] x[127] </args>
      <args> x[79] x[89] </args>
      <args> x[79] x[97] </args>
      <args> x[79] x[101] </args>
      <args> x[79] x[102] </args>
      <args> x[79] x[104] </args>
      <args> x[79] x[107] </args>
      <args> x[79] x[108] </args>
      <args> x[79] x[109] </args>
      <args> x[79] x[116] </args>
      <args> x[80] x[84] </args>
      <args> x[81] x[82] </args>
      <args> x[81] x[85] </args>
      <args> x[81] x[92] </args>
      <args> x[81] x[93] </args>
      <args> x[81] x[112] </args>
      <args> x[81] x[114] </args>
      <args> x[81] x[115] </args>
      <args> x[81] x[117] </args>
      <args> x[81] x[125] </args>
      <args> x[82] x[85] </args>
      <args> x[82] x[90] </args>
      <args> x[82] x[91] </args>
      <args> x[82] x[93] </args>
      <args> x[82] x[98] </args>
      <args> x[82] x[112] </args>
      <args> x[82] x[114] </args>
      <args> x[82] x[115] </args>
      <args> x[82] x[117] </args>
      <args> x[82] x[122] </args>
      <args> x[82] x[125] </args>
      <args> x[83] x[88] </args>
      <args> x[83] x[92] </args>
      <args> x[83] x[95] </args>
      <args> x[83] x[106] </args>
      <args> x[83] x[110] </args>
      <args> x[83] x[112] </args>
      <args> x[83] x[126] </args>
      <args> x[85] x[92] </args>
      <args> x[85] x[93] </args>
      <args> x[85] x[112] </args>
      <args> x[85] x[115] </args>
      <args> x[85] x[117] </args>
      <args> x[87] x[89] </args>
      <args> x[87] x[90] </args>
      <args> x[87] x[91] </args>
      <args> x[87] x[98] </args>
      <args> x[87] x[99] </args>
      <args> x[87] x[106] </args>
      <args> x[87] x[107] </args>
      <args> x[87] x[109] </args>
      <args> x[87] x[113] </args>
      <args> x[87] x[114] </args>
      <args> x[87] x[122] </args>
      <args> x[87] x[125] </args>
      <args> x[87] x[127] </args>
      <args> x[88] x[94] </args>
      <args> x[88] x[95] </args>
      <args> x[88] x[105] </args>
      <args> x[88] x[121] </args>
      <args> x[88] x[126] </args>
      <args> x[89] x[96] </args>
      <args> x[89] x[97] </args>
      <args> x[89] x[101] </args>
      <args> x[89] x[104] </args>
      <args> x[89] x[107] </args>
      <args> x[89] x[108] </args>
      <args> x[89] x[109] </args>
      <args> x[89] x[113] </args>
      <args> x[89] x[116] </args>
      <args> x[89] x[127] </args>
      <args> x[90] x[91] </args>
      <args> x[90] x[98] </args>
      <args> x[90] x[99] </args>
      <args> x[90] x[100] </args>
      <args> x[90] x[106] </args>
      <args> x[90] x[113] </args>
      <args> x[90] x[114] </args>
      <args> x[90] x[122] </args>
      <args> x[90] x[125] </args>
      <args> x[90] x[127] </args>
      <args> x[91] x[93] </args>
      <args> x[91] x[98] </args>
      <args> x[91] x[99] </args>
      <args> x[91] x[106] </args>
      <args> x[91] x[112] </args>
      <args> x[91] x[114] </args>
      <args> x[91] x[122] </args>
      <args> x[91] x[125] </args>
      <args> x[91] x[126] </args>
      <args> x[91] x[127] </args>
      <args> x[92] x[93] </args>
      <args> x[92] x[95] </args>
      <args> x[92] x[106] </args>
      <args> x[92] x[110] </args>
      <args> x[92] x[112] </args>
      <args> x[92] x[114] </args>
      <args> x[92] x[115] </args>
      <args> x[92] x[122] </args>
      <args> x[92] x[125] </args>
      <args> x[92] x[126] </args>
      <args> x[93] x[98] </args>
      <args> x[93] x[112] </args>
      <args> x[93] x[114] </args>
      <args> x[93] x[115] </args>
      <args> x[93] x[117] </args>
      <args> x[93] x[122] </args>
      <args> x[93] x[125] </args>
      <args> x[94] x[105] </args>
      <args> x[95] x[106] </args>
      <args> x[95] x[110] </args>
      <args> x[95] x[112] </args>
      <args> x[95] x[121] </args>
      <args> x[95] x[126] </args>
      <args> x[96] x[99] </args>
      <args> x[96] x[100] </args>
      <args> x[96] x[101] </args>
      <args> x[96] x[104] </args>
      <args> x[96] x[113] </args>
      <args> x[96] x[116] </args>
      <args> x[96] x[124] </args>
      <args> x[97] x[101] </args>
      <args> x[97] x[102] </args>
      <args> x[97] x[107] </args>
      <args> x[97] x[108] </args>
      <args> x[97] x[109] </args>
      <args> x[97] x[118] </args>
      <args> x[97] x[119] </args>
      <args> x[98] x[99] </args>
      <args> x[98] x[106] </args>
      <args> x[98] x[114] </args>
      <args> x[98] x[122] </args>
      <args> x[98] x[125] </args>
      <args> x[98] x[127] </args>
      <args> x[99] x[100] </args>
      <args> x[99] x[104] </args>
      <args> x[99] x[113] </args>
      <args> x[99] x[116] </args>
      <args> x[99] x[124] </args>
      <args> x[99] x[127] </args>
      <args> x[100] x[104] </args>
      <args> x[100] x[113] </args>
      <args> x[100] x[124] </args>
      <args> x[100] x[127] </args>
      <args> x[101] x[104] </args>
      <args> x[101] x[107] </args>
      <args> x[101] x[108] </args>
      <args> x[101] x[109] </args>
      <args> x[101] x[113] </args>
      <args> x[101] x[116] </args>
      <args> x[101] x[127] </args>
      <args> x[102] x[107] </args>
      <args> x[102] x[108] </args>
      <args> x[102] x[118] </args>
      <args> x[102] x[119] </args>
      <args> x[103] x[123] </args>
      <args> x[104] x[109] </args>
      <args> x[104] x[113] </args>
      <args> x[104] x[116] </args>
      <args> x[104] x[124] </args>
      <args> x[106] x[110] </args>
      <args> x[106] x[112] </args>
      <args> x[106] x[114] </args>
      <args> x[106] x[122] </args>
      <args> x[106] x[125] </args>
      <args> x[106] x[126] </args>
      <args> x[107] x[108] </args>
      <args> x[107] x[109] </args>
      <args> x[107] x[113] </args>
      <args> x[107] x[127] </args>
      <args> x[108] x[109] </args>
      <args> x[109] x[113] </args>
      <args> x[109] x[116] </args>
      <args> x[109] x[127] </args>
      <args> x[110] x[112] </args>
      <args> x[110] x[115] </args>
      <args> x[110] x[122] </args>
      <args> x[110] x[125] </args>
      <args> x[110] x[126] </args>
      <args> x[112] x[114] </args>
      <args> x[112] x[115] </args>
      <args> x[112] x[117] </args>
      <args> x[112] x[122] </args>
      <args> x[112] x[125] </args>
      <args> x[112] x[126] </args>
      <args> x[113] x[116] </args>
      <args> x[113] x[124] </args>
      <args> x[113] x[127] </args>
      <args> x[114] x[115] </args>
      <args> x[114] x[122] </args>
      <args> x[114] x[125] </args>
      <args> x[114] x[126] </args>
      <args> x[115] x[117] </args>
      <args> x[115] x[122] </args>
      <args> x[115] x[125] </args>
      <args> x[116] x[124] </args>
      <args> x[118] x[119] </args>
      <args> x[122] x[125] </args>
      <args> x[122] x[126] </args>
      <args> x[122] x[127] </args>
      <args> x[125] x[126] </args>
    </group>
  </constraints>
  <objectives>
    <minimize type="maximum"> x[] </minimize>
  </objectives>
</instance>
